17	4
11	11	9	11	
0	0	0	0	0	3	2	3	4	
6	0	0	7	0	3	11	12	15	
4	0	0	1	0	3	5	8	16	
2	0	0	0	2	1	17	
1	0	0	6	0	3	6	12	14	
125	2	0	0	0	1	7	
25	0	0	0	6	2	9	17	
75	0	9	0	0	2	10	17	
125	0	8	0	0	2	13	17	
150	8	0	0	0	2	17	17	
150	0	0	7	0	2	17	17	
100	7	0	0	0	2	17	17	
1	8	0	0	0	3	17	17	17	
6	0	1	0	0	1	17	
5	0	0	0	2	1	17	
3	0	0	5	0	1	17	
0	0	0	0	0	0	
